
Log started (V12.10.0.0) Sun Apr  4 07:51:09 2021


Problem 'asset.lp' read.
Read time = 0.00 sec. (0.24 ticks)
New value for default parallel thread count: 1
New value for time limit in seconds: 300
Version identifier: 12.10.0.0 | 2019-11-26 | 843d4de
CPXPARAM_Threads                                 1
CPXPARAM_TimeLimit                               300
Found incumbent of value -0.882649 after 0.00 sec. (0.11 ticks)
Tried aggregator 3 times.
MIP Presolve eliminated 412 rows and 153 columns.
MIP Presolve modified 1910 coefficients.
Aggregator did 774 substitutions.
Reduced MIP has 1001 rows, 1126 columns, and 4843 nonzeros.
Reduced MIP has 972 binaries, 111 generals, 0 SOSs, and 0 indicators.
Presolve time = 0.01 sec. (10.32 ticks)
Probing fixed 109 vars, tightened 17 bounds.
Probing time = 0.01 sec. (3.81 ticks)
Cover probing fixed 0 vars, tightened 72 bounds.
Tried aggregator 1 time.
MIP Presolve eliminated 154 rows and 148 columns.
MIP Presolve modified 372 coefficients.
Reduced MIP has 847 rows, 978 columns, and 3909 nonzeros.
Reduced MIP has 841 binaries, 94 generals, 0 SOSs, and 0 indicators.
Presolve time = 0.00 sec. (3.65 ticks)
Probing time = 0.00 sec. (2.49 ticks)
Tried aggregator 1 time.
Detecting symmetries...
MIP Presolve modified 106 coefficients.
Reduced MIP has 847 rows, 978 columns, and 3909 nonzeros.
Reduced MIP has 841 binaries, 94 generals, 0 SOSs, and 0 indicators.
Presolve time = 0.00 sec. (2.68 ticks)
Probing time = 0.00 sec. (2.49 ticks)
Clique table members: 2555.
MIP emphasis: balance optimality and feasibility.
MIP search method: dynamic search.
Parallel mode: none, using 1 thread.
Root relaxation solution time = 0.01 sec. (9.74 ticks)

        Nodes                                         Cuts/
   Node  Left     Objective  IInf  Best Integer    Best Bound    ItCnt     Gap

*     0+    0                           -0.8826      513.0374              --- 
      0     0      420.8948   269       -0.8826      420.8948      532     --- 
      0     0      420.1419   269       -0.8826     Cuts: 299      919     --- 
      0     0      420.1375   269       -0.8826     Cuts: 261     1145     --- 
      0     0      420.1362   269       -0.8826     Cuts: 148     1264     --- 
*     0+    0                          335.0020      420.1362            25.41%
*     0+    0                          370.1945      420.1362            13.49%
*     0+    0                          370.7681      420.1362            13.32%
*     0+    0                          388.1949      420.1362             8.23%
      0     0        cutoff            388.1949      420.1362     1264    8.23%
Detecting symmetries...
      0     2      420.1362   239      388.1949      420.1362     1264    8.23%
Elapsed time = 0.48 sec. (476.91 ticks, tree = 0.01 MB, solutions = 4)
*    40+   40                          392.9536      420.1362             6.92%
    100    90      420.1355   235      392.9536      420.1358     4297    6.92%
*   140+  118                          397.2969      420.1358             5.75%
    240   211      420.1337   207      397.2969      420.1357     8579    5.75%
*   380+  343                          398.3903      420.1355             5.46%
    427   392      403.7031   129      398.3903      420.1355    12813    5.46%
*   480+  432                          399.6963      420.1355             5.11%
*   480+  432                          399.6970      420.1355             5.11%
    562   511      420.1122   160      399.6970      420.1355    16344    5.11%
*   590+  537                          399.6984      420.1355             5.11%
*   591+  504                          407.0378      420.1355             3.22%
*   591+  475                          408.8023      420.1355             2.77%
*   591+  475                          408.8024      420.1355             2.77%
    591   477      420.1341   234      408.8024      420.1354    17655    2.77%
*   592+  476                          408.8031      420.1354             2.77%
*   592+  476                          408.8032      420.1354             2.77%
    592   478      420.1342   233      408.8032      420.1354    17784    2.77%
*   692+  572                          408.8033      420.1353             2.77%
    758   640      415.8009   164      408.8033      420.1353    21535    2.77%

Performing restart 1

Repeating presolve.
Tried aggregator 2 times.
MIP Presolve eliminated 25 rows and 35 columns.
MIP Presolve modified 711 coefficients.
Aggregator did 1 substitutions.
Reduced MIP has 821 rows, 942 columns, and 3282 nonzeros.
Reduced MIP has 813 binaries, 87 generals, 0 SOSs, and 0 indicators.
Presolve time = 0.00 sec. (3.71 ticks)
Tried aggregator 1 time.
MIP Presolve eliminated 2 rows and 0 columns.
MIP Presolve modified 24 coefficients.
Reduced MIP has 819 rows, 942 columns, and 3278 nonzeros.
Reduced MIP has 813 binaries, 87 generals, 0 SOSs, and 0 indicators.
Presolve time = 0.00 sec. (2.56 ticks)
Represolve time = 0.02 sec. (14.19 ticks)
    802     0      419.9543   194      408.8033     Cuts: 167    23743    2.73%
    802     0      419.7226   194      408.8033     Cuts: 162    24125    2.67%
    802     0      419.1323   194      408.8033     Cuts: 195    24559    2.53%
    802     0      418.4874   194      408.8033     Cuts: 154    24809    2.37%
    802     0      418.2288   194      408.8033     Cuts: 141    25049    2.31%
    802     0      417.9063   194      408.8033     Cuts: 152    25338    2.23%
    802     0      417.7078   194      408.8033     Cuts: 178    25747    2.18%
*   802+    0                          408.8033      417.7078             2.18%
*   802+    0                          408.8033      417.7078             2.18%
*   802+    0                          408.8034      417.7078             2.18%
    802     0        cutoff            408.8034      417.7078    25747    2.18%
    802     0      417.5716   194      408.8034     Cuts: 184    26048    2.14%
    802     0      417.4360   194      408.8034     Cuts: 133    26436    2.11%
    802     0      417.3034   194      408.8034     Cuts: 154    26690    2.08%
*   802+    0                          408.8035      417.3034             2.08%
    802     0      417.2042   194      408.8035     Cuts: 130    26884    2.05%
    802     0      417.2032   194      408.8035     Cuts: 117    27015    2.05%
    802     0      417.1750   194      408.8035      Cuts: 63    27226    2.05%
    802     0      417.1744   194      408.8035     Cuts: 116    27322    2.05%
    802     0      417.1742   194      408.8035      Cuts: 48    27398    2.05%
    802     0      417.1724   194      408.8035      Cuts: 32    27478    2.05%
*   802+    0                          408.8036      417.1724             2.05%
*   802+    0                          408.8041      417.1724             2.05%
    802     0        cutoff            408.8041      417.1724    27478    2.05%
    802     2      417.1724   250      408.8041      417.1716    27478    2.05%
    804     4      413.2379   163      408.8041      417.0511    28453    2.02%
    816    16      413.7993   209      408.8041      415.7038    32495    1.69%
Elapsed time = 5.16 sec. (5927.65 ticks, tree = 0.03 MB, solutions = 22)
*   872+   57                          412.7213      414.9093             0.53%
*   922+   64                          412.7245      413.0986             0.09%
    948    85      413.0104   189      412.7245      413.0739    37832    0.08%
*   972+   49                          412.9932      413.0104             0.00%

GUB cover cuts applied:  5
Clique cuts applied:  75
Cover cuts applied:  1
Implied bound cuts applied:  9
Flow cuts applied:  20
Mixed integer rounding cuts applied:  70
Zero-half cuts applied:  27
Lift and project cuts applied:  22
Gomory fractional cuts applied:  14

Root node processing (before b&c):
  Real time             =    0.48 sec. (477.29 ticks)
Sequential b&c:
  Real time             =    5.63 sec. (6619.95 ticks)
                          ------------
Total (root+branch&cut) =    6.12 sec. (7097.25 ticks)

Solution pool: 26 solutions saved.

MIP - Integer optimal, tolerance (0.0001/1e-06):  Objective =  4.1299324358e+02
Current MIP best bound =  4.1301041947e+02 (gap = 0.0171759, 0.00%)
Solution time =    6.12 sec.  Iterations = 39298  Nodes = 972 (50)
Deterministic time = 7097.25 ticks  (1160.13 ticks/sec)


Incumbent solution
Variable Name           Solution Value
F                           450.000000
f1                            0.926756
f2                           36.080000
y1                            1.000000
y61                           1.000000
y70                           1.000000
y113                          1.000000
y150                          1.000000
y176                          1.000000
y210                          1.000000
y222                          1.000000
y228                          1.000000
y267                          1.000000
y271                          1.000000
y21                           1.000000
y214                          1.000000
y238                          1.000000
y87                           1.000000
y158                          1.000000
y51                           1.000000
y301                          1.000000
y56                           1.000000
y281                          1.000000
y187                          1.000000
y178                          1.000000
y93                           1.000000
y306                          1.000000
y198                          1.000000
y54                           1.000000
y5                            1.000000
s1                            6.398057
s17                           6.000000
s27                           6.000000
s30                           6.000000
s61                           6.370666
s70                           6.088081
s74                           6.000000
s95                           6.000000
s109                          6.000000
s113                          6.213078
s121                          6.000000
s122                          6.000000
s150                          6.207275
s176                          6.658676
s185                          6.000000
s210                          6.370767
s222                          6.265580
s226                          6.000000
s228                          6.236852
s267                          6.318097
s271                          6.629251
s212                          6.020000
s149                          6.130000
s151                          6.180000
s21                           6.437266
s118                          6.390000
s299                          6.400000
s251                          6.420000
s214                          6.640976
s238                          6.582108
s87                           7.479430
s158                          7.488799
s51                           6.536671
s301                          7.535494
s56                           7.552854
s246                          6.660000
s281                          7.367829
s187                          7.739409
s178                          7.416506
s93                           7.837951
s306                          7.510166
s198                          7.548363
s54                           7.954574
s5                            7.939735
x62x87x1                      1.000000
x262x51x1                     1.000000
x191x70x1                     1.000000
x23x238x1                     1.000000
x266x1x1                      1.000000
x143x271x1                    1.000000
x143x238x1                    1.000000
x146x51x1                     1.000000
x38x70x1                      1.000000
x38x150x1                     1.000000
x43x267x2                     1.000000
x2x228x2                      1.000000
x223x222x2                    2.000000
x4x61x2                       1.000000
x23x61x2                      1.000000
x241x113x2                    1.000000
x241x228x2                    1.000000
x266x267x2                    1.000000
x247x113x2                    1.000000
x247x176x2                    1.000000
x146x150x2                    1.000000
x77x176x3                     1.000000
x77x271x3                     1.000000
x62x158x3                     1.000000
x43x214x3                     1.000000
x2x21x3                       1.000000
x262x210x3                    1.000000
x4x210x3                      1.000000
x191x21x3                     1.000000
x291x1x3                      1.000000
x291x214x3                    1.000000
x1x0x1                        1.000000
x1x301x3                      1.000000
x61x0x2                       1.000000
x61x158x2                     1.000000
x70x281x1                     1.000000
x70x178x1                     1.000000
x113x0x2                      1.000000
x113x93x2                     1.000000
x150x281x1                    1.000000
x150x178x2                    1.000000
x176x0x2                      1.000000
x176x54x3                     1.000000
x210x56x3                     2.000000
x222x301x2                    1.000000
x222x306x2                    1.000000
x228x306x2                    1.000000
x228x198x2                    1.000000
x267x0x2                      1.000000
x267x198x2                    1.000000
x271x5x1                      1.000000
x271x93x3                     1.000000
x21x87x3                      1.000000
x21x5x3                       1.000000
x214x187x3                    1.000000
x214x54x3                     1.000000
x238x0x1                      2.000000
x87x0x1                       1.000000
x87x0x3                       1.000000
x158x0x2                      1.000000
x158x0x3                      1.000000
x51x0x1                       1.000000
x51x187x1                     1.000000
x301x0x2                      1.000000
x301x0x3                      1.000000
x56x0x3                       2.000000
x281x0x1                      2.000000
x187x0x1                      1.000000
x187x0x3                      1.000000
x178x0x1                      1.000000
x178x0x2                      1.000000
x93x0x2                       1.000000
x93x0x3                       1.000000
x306x0x2                      2.000000
x198x0x2                      2.000000
x54x0x3                       2.000000
x5x0x1                        1.000000
x5x0x3                        1.000000
s77                           5.190410
z77z176z3                     1.000000
z77z271z3                     1.000000
z77z56z3                      1.000000
z77z54z3                      1.000000
s62                           5.484764
z62z87z1                      1.000000
z62z158z3                     1.000000
s43                           4.807490
z43z267z2                     1.000000
z43z214z3                     1.000000
z43z306z2                     1.000000
z43z198z2                     1.000000
z43z54z3                      1.000000
s2                            4.763140
z2z228z2                      1.000000
z2z21z3                       1.000000
z2z56z3                       1.000000
z2z306z2                      1.000000
z2z198z2                      1.000000
z2z54z3                       1.000000
s223                          4.780120
z223z222z2                    1.000000
z223z306z2                    1.000000
z223z198z2                    1.000000
s262                          4.800610
z262z210z3                    1.000000
z262z238z1                    1.000000
z262z51z1                     1.000000
z262z56z3                     1.000000
z262z281z1                    1.000000
z262z54z3                     1.000000
s4                            4.829070
z4z61z2                       1.000000
z4z210z3                      1.000000
z4z56z3                       1.000000
z4z306z2                      1.000000
z4z198z2                      1.000000
z4z54z3                       1.000000
s191                          4.763820
z191z70z1                     1.000000
z191z21z3                     1.000000
z191z51z1                     1.000000
z191z56z3                     1.000000
z191z281z1                    1.000000
z191z54z3                     1.000000
s23                           4.807490
z23z61z2                      1.000000
z23z238z1                     1.000000
z23z281z1                     1.000000
z23z306z2                     1.000000
z23z198z2                     1.000000
s241                          4.871920
z241z113z2                    1.000000
z241z228z2                    1.000000
z241z306z2                    1.000000
z241z198z2                    1.000000
s266                          4.919720
z266z1z1                      1.000000
z266z267z2                    1.000000
z266z281z1                    1.000000
z266z306z2                    1.000000
z266z198z2                    1.000000
s291                          4.941530
z291z1z3                      1.000000
z291z214z3                    1.000000
z291z56z3                     1.000000
z291z54z3                     1.000000
s143                          4.950020
z143z271z1                    1.000000
z143z238z1                    1.000000
z143z281z1                    1.000000
s247                          4.939710
z247z113z2                    1.000000
z247z176z2                    1.000000
z247z306z2                    1.000000
z247z198z2                    1.000000
s146                          4.824840
z146z150z2                    1.000000
z146z51z1                     1.000000
z146z281z1                    1.000000
z146z306z2                    1.000000
z146z198z2                    1.000000
s38                           4.828870
z38z70z1                      1.000000
z38z150z1                     1.000000
z38z51z1                      1.000000
z38z281z1                     1.000000
z1z301z3                      1.000000
z61z158z2                     1.000000
z70z281z1                     1.000000
z70z178z1                     1.000000
z113z93z2                     1.000000
z150z281z1                    1.000000
z150z178z2                    1.000000
z176z54z3                     1.000000
z210z56z3                     1.000000
z222z301z2                    1.000000
z222z306z2                    1.000000
z228z306z2                    1.000000
z228z198z2                    1.000000
z267z198z2                    1.000000
z271z93z3                     1.000000
z271z5z1                      1.000000
z21z87z3                      1.000000
z21z5z3                       1.000000
z214z187z3                    1.000000
z214z54z3                     1.000000
z51z187z1                     1.000000
All other variables in the range 1-2056 are 0.
